c description: Perfect Matching Principle on 
c generator: CNFgen (0.9.0)
c copyright: (C) 2012-2020 Massimo Lauria <massimo.lauria@uniroma1.it>
c url: https://massimolauria.net/cnfgen
c
p cnf 40 121
-1 -2 0
-1 -3 0
-1 -4 0
-2 -3 0
-2 -4 0
-3 -4 0
1 2 3 4 0
-1 -5 0
-1 -6 0
-1 -7 0
-5 -6 0
-5 -7 0
-6 -7 0
1 5 6 7 0
5 0
-8 -9 0
-8 -10 0
-8 -11 0
-9 -10 0
-9 -11 0
-10 -11 0
8 9 10 11 0
-12 -13 0
12 13 0
14 0
8 0
-15 -16 0
-15 -17 0
-16 -17 0
15 16 17 0
-18 -19 0
-18 -20 0
-18 -21 0
-19 -20 0
-19 -21 0
-20 -21 0
18 19 20 21 0
0
-2 -18 0
-2 -22 0
-18 -22 0
2 18 22 0
23 0
-23 -24 0
-23 -25 0
-23 -26 0
-23 -27 0
-24 -25 0
-24 -26 0
-24 -27 0
-25 -26 0
-25 -27 0
-26 -27 0
23 24 25 26 27 0
-22 -28 0
22 28 0
-12 -29 0
12 29 0
0
-6 -30 0
6 30 0
15 0
0
-13 -24 0
13 24 0
-9 -16 0
-9 -30 0
-9 -31 0
-9 -32 0
-16 -30 0
-16 -31 0
-16 -32 0
-30 -31 0
-30 -32 0
-31 -32 0
9 16 30 31 32 0
33 0
-7 -25 0
7 25 0
-34 -35 0
34 35 0
-31 -36 0
-31 -37 0
-36 -37 0
31 36 37 0
36 0
-26 -37 0
-26 -38 0
-37 -38 0
26 37 38 0
34 0
-19 -32 0
19 32 0
-3 -39 0
3 39 0
0
0
-20 -27 0
-20 -33 0
-27 -33 0
20 27 33 0
-4 -10 0
-4 -39 0
-10 -39 0
4 10 39 0
-14 -28 0
-14 -29 0
-14 -40 0
-28 -29 0
-28 -40 0
-29 -40 0
14 28 29 40 0
21 0
0
0
-17 -35 0
-17 -38 0
-35 -38 0
17 35 38 0
-11 -40 0
11 40 0